output ["\"output\": {","\"default\": ",showJSON(concat(["Num of weeks: "++format(P)++": \n"]++[show([x[i,j,k] | j in 1..n])++if i==m then "\n" else " | " endif | k in 1..fix(P), i in 1..m])),", \"raw\": ",showJSON(concat(["Num of weeks: "++format(P)++": \n"]++[show([x[i,j,k] | j in 1..n])++if i==m then "\n" else " | " endif | k in 1..fix(P), i in 1..m])),"}, \"sections\": [\"default\", \"raw\"]"];
int: P;
array [1..m,1..n,1..p] of int: x;
int: n = 4;
int: m = 5;
